(set-info :smt-lib-version 2.6)
(set-logic QF_NIA)
(set-info :source |
Generated by: Cristina Borralleras, Daniel Larraz, Albert Oliveras, Enric Rodriguez-Carbonell, Albert Rubio
Generated on: 2017-04-27
Generator: VeryMax
Application: Termination proving
Target solver: barcelogic
|)
(set-info :license "https://creativecommons.org/licenses/by/4.0/")
(set-info :category "industrial")
(set-info :status unsat)
(declare-fun Nl2arg11 () Int)
(declare-fun Nl2arg21 () Int)
(declare-fun lam0n0 () Int)
(declare-fun lam0n1 () Int)
(declare-fun lam0n3 () Int)
(declare-fun lam0n2 () Int)
(declare-fun Nl2CT1 () Int)
(declare-fun lam1n0 () Int)
(declare-fun lam1n1 () Int)
(declare-fun lam1n3 () Int)
(declare-fun lam1n2 () Int)
(declare-fun lam2n0 () Int)
(declare-fun lam2n1 () Int)
(declare-fun lam2n3 () Int)
(declare-fun lam2n2 () Int)
(declare-fun lam3n0 () Int)
(declare-fun lam3n1 () Int)
(declare-fun lam3n3 () Int)
(declare-fun lam3n2 () Int)
(declare-fun lam4n1 () Int)
(declare-fun lam4n0 () Int)
(declare-fun lam5n1 () Int)
(declare-fun lam5n0 () Int)
(declare-fun lam6n1 () Int)
(declare-fun lam6n0 () Int)
(declare-fun lam7n1 () Int)
(declare-fun lam7n0 () Int)
(declare-fun lam8n0 () Int)
(declare-fun lam8n1 () Int)
(declare-fun lam8n2 () Int)
(declare-fun lam8n3 () Int)
(assert ( and ( <= ( - 9 ) Nl2arg11 ) ( <= Nl2arg11 9 ) ( <= ( - 9 ) Nl2arg21 ) ( <= Nl2arg21 9 ) ))
(assert ( or ( and ( >= lam0n0 0 ) ( >= lam0n1 0 ) ( >= lam0n3 0 ) ( > ( + ( * 1 lam0n0 ) ( * ( - 9 ) lam0n1 ) ( * ( - 1 ) lam0n2 ) ( * Nl2CT1 lam0n3 ) ( - 1 ) ) 0 ) ( = ( + ( * 1 lam0n2 ) ( * Nl2arg11 lam0n3 ) ) 0 ) ( = ( + ( * ( - 1 ) lam0n0 ) ( * 1 lam0n1 ) ( * Nl2arg21 lam0n3 ) ) 0 ) ) ( and ( >= lam1n0 0 ) ( >= lam1n1 0 ) ( >= lam1n3 0 ) ( > ( + ( * 1 lam1n0 ) ( * ( - 9 ) lam1n1 ) ( * ( - 1 ) lam1n2 ) ( * Nl2CT1 lam1n3 ) ( - 1 ( + ( + Nl2CT1 ( * Nl2arg11 1 ) ) ( * Nl2arg21 1 ) ) ) ) 0 ) ( = ( + ( * 1 lam1n2 ) ( * Nl2arg11 lam1n3 ) ) 0 ) ( = ( + ( * ( - 1 ) lam1n0 ) ( * 1 lam1n1 ) ( * Nl2arg21 lam1n3 ) ( - ( + 0 ( * Nl2arg21 1 ) ) ) ) 0 ) ) ))
(assert ( or ( and ( >= lam2n0 0 ) ( >= lam2n1 0 ) ( >= lam2n3 0 ) ( > ( + ( * 1 lam2n0 ) ( * ( - 9 ) lam2n1 ) ( * Nl2CT1 lam2n3 ) ( - 1 ) ) 0 ) ( = ( + ( * 1 lam2n2 ) ( * Nl2arg11 lam2n3 ) ) 0 ) ( = ( + ( * ( - 1 ) lam2n0 ) ( * 1 lam2n1 ) ( * Nl2arg21 lam2n3 ) ) 0 ) ) ( and ( >= lam3n0 0 ) ( >= lam3n1 0 ) ( >= lam3n3 0 ) ( > ( + ( * 1 lam3n0 ) ( * ( - 9 ) lam3n1 ) ( * Nl2CT1 lam3n3 ) ( - 1 ( + ( + Nl2CT1 ( * Nl2arg11 0 ) ) ( * Nl2arg21 ( - 1 ) ) ) ) ) 0 ) ( = ( + ( * 1 lam3n2 ) ( * Nl2arg11 lam3n3 ) ) 0 ) ( = ( + ( * ( - 1 ) lam3n0 ) ( * 1 lam3n1 ) ( * Nl2arg21 lam3n3 ) ( - ( + 0 ( * Nl2arg21 1 ) ) ) ) 0 ) ) ))
(assert ( or ( and ( >= lam4n1 0 ) ( > ( + ( * ( - 10 ) lam4n0 ) ( * Nl2CT1 lam4n1 ) ( - 1 ) ) 0 ) ( = ( * Nl2arg11 lam4n1 ) 0 ) ( = ( + ( * 1 lam4n0 ) ( * Nl2arg21 lam4n1 ) ) 0 ) ) ( and ( >= lam5n1 0 ) ( > ( + ( * ( - 10 ) lam5n0 ) ( * Nl2CT1 lam5n1 ) ( - 1 ( + ( + Nl2CT1 ( * Nl2arg11 0 ) ) ( * Nl2arg21 9 ) ) ) ) 0 ) ( = ( * Nl2arg11 lam5n1 ) 0 ) ( = ( + ( * 1 lam5n0 ) ( * Nl2arg21 lam5n1 ) ) 0 ) ) ))
(assert ( or ( and ( >= lam6n1 0 ) ( > ( + ( * Nl2CT1 lam6n1 ) ( - 1 ) ) 0 ) ( = ( * Nl2arg11 lam6n1 ) 0 ) ( = ( + ( * 1 lam6n0 ) ( * Nl2arg21 lam6n1 ) ) 0 ) ) ( and ( >= lam7n1 0 ) ( > ( + ( * Nl2CT1 lam7n1 ) ( - 1 ( + ( + Nl2CT1 ( * Nl2arg11 1 ) ) ( * Nl2arg21 1 ) ) ) ) 0 ) ( = ( * Nl2arg11 lam7n1 ) 0 ) ( = ( + ( * 1 lam7n0 ) ( * Nl2arg21 lam7n1 ) ) 0 ) ) ))
(assert ( and ( >= lam8n0 0 ) ( >= lam8n1 0 ) ( > ( + ( * 1 lam8n1 ) ( - 1 Nl2CT1 ) ) 0 ) ( = ( + ( * 1 lam8n2 ) ( - ( + 0 Nl2arg11 ) ) ) 0 ) ( = ( + ( * 1 lam8n3 ) ( - ( + 0 Nl2arg21 ) ) ) 0 ) ( = ( * ( - 1 ) lam8n1 ) 0 ) ( = ( + ( * ( - 1 ) lam8n0 ) ( * ( - 1 ) lam8n3 ) ) 0 ) ))
(assert ( or ( and ( >= lam0n0 0 ) ( >= lam0n1 0 ) ( >= lam0n3 0 ) ( > ( + ( * 1 lam0n0 ) ( * ( - 9 ) lam0n1 ) ( * ( - 1 ) lam0n2 ) ( * Nl2CT1 lam0n3 ) ( - 1 ) ) 0 ) ( = ( + ( * 1 lam0n2 ) ( * Nl2arg11 lam0n3 ) ) 0 ) ( = ( + ( * ( - 1 ) lam0n0 ) ( * 1 lam0n1 ) ( * Nl2arg21 lam0n3 ) ) 0 ) ) ( and ( >= lam2n0 0 ) ( >= lam2n1 0 ) ( >= lam2n3 0 ) ( > ( + ( * 1 lam2n0 ) ( * ( - 9 ) lam2n1 ) ( * Nl2CT1 lam2n3 ) ( - 1 ) ) 0 ) ( = ( + ( * 1 lam2n2 ) ( * Nl2arg11 lam2n3 ) ) 0 ) ( = ( + ( * ( - 1 ) lam2n0 ) ( * 1 lam2n1 ) ( * Nl2arg21 lam2n3 ) ) 0 ) ) ( and ( >= lam4n1 0 ) ( > ( + ( * ( - 10 ) lam4n0 ) ( * Nl2CT1 lam4n1 ) ( - 1 ) ) 0 ) ( = ( * Nl2arg11 lam4n1 ) 0 ) ( = ( + ( * 1 lam4n0 ) ( * Nl2arg21 lam4n1 ) ) 0 ) ) ( and ( >= lam6n1 0 ) ( > ( + ( * Nl2CT1 lam6n1 ) ( - 1 ) ) 0 ) ( = ( * Nl2arg11 lam6n1 ) 0 ) ( = ( + ( * 1 lam6n0 ) ( * Nl2arg21 lam6n1 ) ) 0 ) ) ))
(check-sat)
(exit)
